(set-logic QF_SLIA)
(set-option :produce-models true)
(declare-const X String)
; ^(25[0-5]|2[0-4][0-9]|1[0-9][0-9]|[0-9]{1,2})(\.(25[0-5]|2[0-4][0-9]|1[0-9][0-9]|[0-9]{1,2})){3}$
(assert (not (str.in_re X (re.++ (re.union (re.++ (str.to_re "25") (re.range "0" "5")) (re.++ (str.to_re "2") (re.range "0" "4") (re.range "0" "9")) (re.++ (str.to_re "1") (re.range "0" "9") (re.range "0" "9")) ((_ re.loop 1 2) (re.range "0" "9"))) ((_ re.loop 3 3) (re.++ (str.to_re ".") (re.union (re.++ (str.to_re "25") (re.range "0" "5")) (re.++ (str.to_re "2") (re.range "0" "4") (re.range "0" "9")) (re.++ (str.to_re "1") (re.range "0" "9") (re.range "0" "9")) ((_ re.loop 1 2) (re.range "0" "9"))))) (str.to_re "\u{0a}")))))
(check-sat)
